; benchmark generated from python API
(set-info :status unknown)
(declare-fun x_epoch () Int)
(declare-fun y_epoch () Int)
(declare-fun x_plus_epoch () Int)
(declare-fun x_plus_month () Int)
(declare-fun x_plus_year () Int)
(declare-fun x_plus_day () Int)
(assert
 (>= x_epoch (- 36584)))
(assert
 (<= x_epoch 36829))
(assert
 (>= y_epoch (- 36584)))
(assert
 (<= y_epoch 36829))
(assert
 (= x_epoch 8371))
(assert
 (>= x_plus_epoch (- 36584)))
(assert
 (<= x_plus_epoch 36829))
(assert
 (let (($x126 (= x_plus_month 11)))
 (let (($x647 (= x_plus_month 9)))
 (let (($x601 (= x_plus_month 6)))
 (let (($x68 (= x_plus_month 4)))
 (let ((?x57 (ite (or $x68 $x601 $x647 $x126) 30 31)))
 (let (($x770 (= (mod x_plus_year 400) 0)))
 (let (($x1963 (= (mod x_plus_year 4) 0)))
 (let (($x292 (or (and $x1963 (and (distinct (mod x_plus_year 100) 0) true)) $x770)))
 (let (($x1920 (= x_plus_month 2)))
 (let (($x312 (>= x_plus_day 1)))
 (let (($x645 (<= x_plus_month 12)))
 (let (($x262 (>= x_plus_month 1)))
 (let (($x259 (<= x_plus_year 2100)))
 (let (($x705 (>= x_plus_year 1900)))
 (and $x705 $x259 $x262 $x645 $x312 (<= x_plus_day (ite $x1920 (ite $x292 29 28) ?x57))))))))))))))))))
(assert
 (let (($x770 (= (mod x_plus_year 400) 0)))
 (let (($x1963 (= (mod x_plus_year 4) 0)))
 (let (($x292 (or (and $x1963 (and (distinct (mod x_plus_year 100) 0) true)) $x770)))
 (let (($x142 (= 2 x_plus_month)))
 (let ((?x746 (ite $x142 (ite $x292 31 31) (ite (= 1 x_plus_month) (ite $x292 0 0) 0))))
 (let (($x151 (= 3 x_plus_month)))
 (let (($x15 (= 4 x_plus_month)))
 (let ((?x512 (ite $x15 (ite $x292 91 90) (ite $x151 (ite $x292 60 59) ?x746))))
 (let (($x324 (= 5 x_plus_month)))
 (let (($x595 (= 6 x_plus_month)))
 (let ((?x376 (ite $x595 (ite $x292 152 151) (ite $x324 (ite $x292 121 120) ?x512))))
 (let (($x431 (= 7 x_plus_month)))
 (let (($x136 (= 8 x_plus_month)))
 (let ((?x167 (ite $x136 (ite $x292 213 212) (ite $x431 (ite $x292 182 181) ?x376))))
 (let (($x318 (= 9 x_plus_month)))
 (let (($x41 (= 10 x_plus_month)))
 (let ((?x639 (ite $x41 (ite $x292 274 273) (ite $x318 (ite $x292 244 243) ?x167))))
 (let (($x724 (= 11 x_plus_month)))
 (let (($x169 (= 12 x_plus_month)))
 (let ((?x278 (ite $x169 (ite $x292 335 334) (ite $x724 (ite $x292 305 304) ?x639))))
 (let ((?x553 (+ (* 365 (- x_plus_year 1)) (div (- x_plus_year 1) 4))))
 (let ((?x411 (+ (- ?x553 (div (- x_plus_year 1) 100)) (div (- x_plus_year 1) 400))))
 (= x_plus_epoch (- (+ (+ ?x411 ?x278) (- x_plus_day 1)) 730179)))))))))))))))))))))))))
(assert
 (let ((?x641 (+ x_epoch 730179)))
 (let ((?x3127 (mod ?x641 146097)))
 (let ((?x3123 (div ?x3127 36524)))
 (let ((?x479 (ite (<= 4 ?x3123) 3 ?x3123)))
 (let ((?x652 (- ?x3127 (* ?x479 36524))))
 (let ((?x494 (mod ?x652 1461)))
 (let ((?x16 (div ?x494 365)))
 (let ((?x430 (ite (<= 4 ?x16) 3 ?x16)))
 (let ((?x1041 (+ (+ (* (div ?x641 146097) 400) (* ?x479 100)) (* (div ?x652 1461) 4))))
 (let ((?x457 (+ (+ ?x1041 ?x430) 1)))
 (let (($x2625 (or (and (= (mod ?x457 4) 0) (and (distinct (mod ?x457 100) 0) true)) (= (mod ?x457 400) 0))))
 (let ((?x2550 (- ?x494 (* ?x430 365))))
 (let ((?x2676 (ite $x2625 31 31)))
 (let (($x492 (>= ?x2550 ?x2676)))
 (let ((?x3234 (ite $x492 (+ (- ?x2550 ?x2676) 1) (+ (- ?x2550 (ite $x2625 0 0)) 1))))
 (let ((?x561 (ite $x2625 60 59)))
 (let (($x2522 (>= ?x2550 ?x561)))
 (let ((?x55 (ite $x2625 91 90)))
 (let (($x1017 (>= ?x2550 ?x55)))
 (let ((?x599 (ite $x1017 (+ (- ?x2550 ?x55) 1) (ite $x2522 (+ (- ?x2550 ?x561) 1) ?x3234))))
 (let ((?x222 (ite $x2625 121 120)))
 (let (($x28 (>= ?x2550 ?x222)))
 (let ((?x3273 (ite $x2625 152 151)))
 (let (($x1943 (>= ?x2550 ?x3273)))
 (let ((?x1910 (ite $x1943 (+ (- ?x2550 ?x3273) 1) (ite $x28 (+ (- ?x2550 ?x222) 1) ?x599))))
 (let ((?x3294 (ite $x2625 182 181)))
 (let (($x1125 (>= ?x2550 ?x3294)))
 (let ((?x2731 (ite $x2625 213 212)))
 (let (($x2525 (>= ?x2550 ?x2731)))
 (let ((?x888 (ite $x2525 (+ (- ?x2550 ?x2731) 1) (ite $x1125 (+ (- ?x2550 ?x3294) 1) ?x1910))))
 (let ((?x235 (ite $x2625 244 243)))
 (let (($x1471 (>= ?x2550 ?x235)))
 (let ((?x1414 (ite $x2625 274 273)))
 (let (($x2958 (>= ?x2550 ?x1414)))
 (let ((?x679 (ite $x2958 (+ (- ?x2550 ?x1414) 1) (ite $x1471 (+ (- ?x2550 ?x235) 1) ?x888))))
 (let ((?x1446 (ite $x2625 305 304)))
 (let (($x1110 (>= ?x2550 ?x1446)))
 (let ((?x2706 (ite $x2625 335 334)))
 (let (($x44 (>= ?x2550 ?x2706)))
 (let ((?x537 (ite $x44 (+ (- ?x2550 ?x2706) 1) (ite $x1110 (+ (- ?x2550 ?x1446) 1) ?x679))))
 (let ((?x362 (* 0 12)))
 (let ((?x214 (+ ?x362 3)))
 (let ((?x371 (ite $x28 5 (ite $x1017 4 (ite $x2522 3 (ite $x492 2 1))))))
 (let ((?x1000 (ite $x1471 9 (ite $x2525 8 (ite $x1125 7 (ite $x1943 6 ?x371))))))
 (let ((?x410 (ite $x44 12 (ite $x1110 11 (ite $x2958 10 ?x1000)))))
 (let ((?x1503 (+ ?x410 ?x214)))
 (let ((?x2150 (- ?x1503 1)))
 (let ((?x1467 (+ (mod ?x2150 12) 1)))
 (let ((?x2822 (ite (or (= ?x1467 4) (= ?x1467 6) (= ?x1467 9) (= ?x1467 11)) 30 31)))
 (let (($x863 (and (= (mod (+ ?x457 (+ 0 (div ?x2150 12))) 4) 0) (and (distinct (mod (+ ?x457 (+ 0 (div ?x2150 12))) 100) 0) true))))
 (let (($x644 (or $x863 (= (mod (+ ?x457 (+ 0 (div ?x2150 12))) 400) 0))))
 (let ((?x3090 (ite (= ?x1467 2) (ite $x644 29 28) ?x2822)))
 (let (($x717 (> 1 ?x537)))
 (let ((?x579 (ite $x717 1 (ite (> ?x537 ?x3090) ?x3090 ?x537))))
 (let ((?x554 (ite (> 1 ?x579) 1 (ite (> ?x579 ?x3090) ?x3090 ?x579))))
 (let ((?x2280 (ite (= 2 ?x1467) (ite $x644 31 31) (ite (= 1 ?x1467) (ite $x644 0 0) 0))))
 (let ((?x3373 (ite (= 4 ?x1467) (ite $x644 91 90) (ite (= 3 ?x1467) (ite $x644 60 59) ?x2280))))
 (let ((?x2786 (ite (= 6 ?x1467) (ite $x644 152 151) (ite (= 5 ?x1467) (ite $x644 121 120) ?x3373))))
 (let ((?x2245 (ite (= 8 ?x1467) (ite $x644 213 212) (ite (= 7 ?x1467) (ite $x644 182 181) ?x2786))))
 (let ((?x1016 (ite (= 10 ?x1467) (ite $x644 274 273) (ite (= 9 ?x1467) (ite $x644 244 243) ?x2245))))
 (let ((?x2244 (ite (= 12 ?x1467) (ite $x644 335 334) (ite (= 11 ?x1467) (ite $x644 305 304) ?x1016))))
 (let ((?x592 (+ (* 365 (- (+ ?x457 (+ 0 (div ?x2150 12))) 1)) (div (- (+ ?x457 (+ 0 (div ?x2150 12))) 1) 4))))
 (let ((?x1202 (+ (- ?x592 (div (- (+ ?x457 (+ 0 (div ?x2150 12))) 1) 100)) (div (- (+ ?x457 (+ 0 (div ?x2150 12))) 1) 400))))
 (let ((?x2071 (+ (+ (- (+ (+ ?x1202 ?x2244) (- ?x554 1)) 730179) 0) 730179)))
 (let ((?x1116 (mod ?x2071 146097)))
 (let ((?x3218 (div ?x1116 36524)))
 (let ((?x3169 (ite (<= 4 ?x3218) 3 ?x3218)))
 (let ((?x3097 (- ?x1116 (* ?x3169 36524))))
 (let ((?x1896 (mod ?x3097 1461)))
 (let ((?x958 (div ?x1896 365)))
 (let ((?x2961 (ite (<= 4 ?x958) 3 ?x958)))
 (let ((?x2805 (+ (+ (* (div ?x2071 146097) 400) (* ?x3169 100)) (* (div ?x3097 1461) 4))))
 (let ((?x2329 (+ (+ ?x2805 ?x2961) 1)))
 (let ((?x1577 (+ 0 (div ?x2150 12))))
 (let ((?x1333 (+ ?x457 ?x1577)))
 (let (($x2351 (= 0 0)))
 (let ((?x1674 (ite $x2351 ?x1333 ?x2329)))
 (= x_plus_year ?x1674)))))))))))))))))))))))))))))))))))))))))))))))))))))))))))))))))))))))))))))))
(assert
 (let ((?x641 (+ x_epoch 730179)))
 (let ((?x3127 (mod ?x641 146097)))
 (let ((?x3123 (div ?x3127 36524)))
 (let ((?x479 (ite (<= 4 ?x3123) 3 ?x3123)))
 (let ((?x652 (- ?x3127 (* ?x479 36524))))
 (let ((?x494 (mod ?x652 1461)))
 (let ((?x16 (div ?x494 365)))
 (let ((?x430 (ite (<= 4 ?x16) 3 ?x16)))
 (let ((?x1041 (+ (+ (* (div ?x641 146097) 400) (* ?x479 100)) (* (div ?x652 1461) 4))))
 (let ((?x457 (+ (+ ?x1041 ?x430) 1)))
 (let (($x2625 (or (and (= (mod ?x457 4) 0) (and (distinct (mod ?x457 100) 0) true)) (= (mod ?x457 400) 0))))
 (let ((?x2550 (- ?x494 (* ?x430 365))))
 (let ((?x2676 (ite $x2625 31 31)))
 (let (($x492 (>= ?x2550 ?x2676)))
 (let ((?x3234 (ite $x492 (+ (- ?x2550 ?x2676) 1) (+ (- ?x2550 (ite $x2625 0 0)) 1))))
 (let ((?x561 (ite $x2625 60 59)))
 (let (($x2522 (>= ?x2550 ?x561)))
 (let ((?x55 (ite $x2625 91 90)))
 (let (($x1017 (>= ?x2550 ?x55)))
 (let ((?x599 (ite $x1017 (+ (- ?x2550 ?x55) 1) (ite $x2522 (+ (- ?x2550 ?x561) 1) ?x3234))))
 (let ((?x222 (ite $x2625 121 120)))
 (let (($x28 (>= ?x2550 ?x222)))
 (let ((?x3273 (ite $x2625 152 151)))
 (let (($x1943 (>= ?x2550 ?x3273)))
 (let ((?x1910 (ite $x1943 (+ (- ?x2550 ?x3273) 1) (ite $x28 (+ (- ?x2550 ?x222) 1) ?x599))))
 (let ((?x3294 (ite $x2625 182 181)))
 (let (($x1125 (>= ?x2550 ?x3294)))
 (let ((?x2731 (ite $x2625 213 212)))
 (let (($x2525 (>= ?x2550 ?x2731)))
 (let ((?x888 (ite $x2525 (+ (- ?x2550 ?x2731) 1) (ite $x1125 (+ (- ?x2550 ?x3294) 1) ?x1910))))
 (let ((?x235 (ite $x2625 244 243)))
 (let (($x1471 (>= ?x2550 ?x235)))
 (let ((?x1414 (ite $x2625 274 273)))
 (let (($x2958 (>= ?x2550 ?x1414)))
 (let ((?x679 (ite $x2958 (+ (- ?x2550 ?x1414) 1) (ite $x1471 (+ (- ?x2550 ?x235) 1) ?x888))))
 (let ((?x1446 (ite $x2625 305 304)))
 (let (($x1110 (>= ?x2550 ?x1446)))
 (let ((?x2706 (ite $x2625 335 334)))
 (let (($x44 (>= ?x2550 ?x2706)))
 (let ((?x537 (ite $x44 (+ (- ?x2550 ?x2706) 1) (ite $x1110 (+ (- ?x2550 ?x1446) 1) ?x679))))
 (let ((?x362 (* 0 12)))
 (let ((?x214 (+ ?x362 3)))
 (let ((?x371 (ite $x28 5 (ite $x1017 4 (ite $x2522 3 (ite $x492 2 1))))))
 (let ((?x1000 (ite $x1471 9 (ite $x2525 8 (ite $x1125 7 (ite $x1943 6 ?x371))))))
 (let ((?x410 (ite $x44 12 (ite $x1110 11 (ite $x2958 10 ?x1000)))))
 (let ((?x1503 (+ ?x410 ?x214)))
 (let ((?x2150 (- ?x1503 1)))
 (let ((?x1467 (+ (mod ?x2150 12) 1)))
 (let ((?x2822 (ite (or (= ?x1467 4) (= ?x1467 6) (= ?x1467 9) (= ?x1467 11)) 30 31)))
 (let (($x863 (and (= (mod (+ ?x457 (+ 0 (div ?x2150 12))) 4) 0) (and (distinct (mod (+ ?x457 (+ 0 (div ?x2150 12))) 100) 0) true))))
 (let (($x644 (or $x863 (= (mod (+ ?x457 (+ 0 (div ?x2150 12))) 400) 0))))
 (let ((?x3090 (ite (= ?x1467 2) (ite $x644 29 28) ?x2822)))
 (let (($x717 (> 1 ?x537)))
 (let ((?x579 (ite $x717 1 (ite (> ?x537 ?x3090) ?x3090 ?x537))))
 (let ((?x554 (ite (> 1 ?x579) 1 (ite (> ?x579 ?x3090) ?x3090 ?x579))))
 (let ((?x2280 (ite (= 2 ?x1467) (ite $x644 31 31) (ite (= 1 ?x1467) (ite $x644 0 0) 0))))
 (let ((?x3373 (ite (= 4 ?x1467) (ite $x644 91 90) (ite (= 3 ?x1467) (ite $x644 60 59) ?x2280))))
 (let ((?x2786 (ite (= 6 ?x1467) (ite $x644 152 151) (ite (= 5 ?x1467) (ite $x644 121 120) ?x3373))))
 (let ((?x2245 (ite (= 8 ?x1467) (ite $x644 213 212) (ite (= 7 ?x1467) (ite $x644 182 181) ?x2786))))
 (let ((?x1016 (ite (= 10 ?x1467) (ite $x644 274 273) (ite (= 9 ?x1467) (ite $x644 244 243) ?x2245))))
 (let ((?x2244 (ite (= 12 ?x1467) (ite $x644 335 334) (ite (= 11 ?x1467) (ite $x644 305 304) ?x1016))))
 (let ((?x592 (+ (* 365 (- (+ ?x457 (+ 0 (div ?x2150 12))) 1)) (div (- (+ ?x457 (+ 0 (div ?x2150 12))) 1) 4))))
 (let ((?x1202 (+ (- ?x592 (div (- (+ ?x457 (+ 0 (div ?x2150 12))) 1) 100)) (div (- (+ ?x457 (+ 0 (div ?x2150 12))) 1) 400))))
 (let ((?x2071 (+ (+ (- (+ (+ ?x1202 ?x2244) (- ?x554 1)) 730179) 0) 730179)))
 (let ((?x1116 (mod ?x2071 146097)))
 (let ((?x3218 (div ?x1116 36524)))
 (let ((?x3169 (ite (<= 4 ?x3218) 3 ?x3218)))
 (let ((?x3097 (- ?x1116 (* ?x3169 36524))))
 (let ((?x1896 (mod ?x3097 1461)))
 (let ((?x958 (div ?x1896 365)))
 (let ((?x2961 (ite (<= 4 ?x958) 3 ?x958)))
 (let ((?x2805 (+ (+ (* (div ?x2071 146097) 400) (* ?x3169 100)) (* (div ?x3097 1461) 4))))
 (let ((?x2329 (+ (+ ?x2805 ?x2961) 1)))
 (let (($x944 (or (and (= (mod ?x2329 4) 0) (and (distinct (mod ?x2329 100) 0) true)) (= (mod ?x2329 400) 0))))
 (let ((?x2900 (ite $x944 31 31)))
 (let ((?x971 (- ?x1896 (* ?x2961 365))))
 (let (($x2653 (>= ?x971 ?x2900)))
 (let ((?x1215 (ite $x944 60 59)))
 (let (($x2047 (>= ?x971 ?x1215)))
 (let ((?x1321 (ite $x944 91 90)))
 (let (($x1165 (>= ?x971 ?x1321)))
 (let ((?x2221 (ite $x944 121 120)))
 (let (($x409 (>= ?x971 ?x2221)))
 (let ((?x1409 (ite $x409 5 (ite $x1165 4 (ite $x2047 3 (ite $x2653 2 1))))))
 (let ((?x2613 (ite $x944 152 151)))
 (let (($x500 (>= ?x971 ?x2613)))
 (let ((?x2712 (ite $x944 182 181)))
 (let (($x1160 (>= ?x971 ?x2712)))
 (let ((?x2664 (ite $x944 213 212)))
 (let (($x436 (>= ?x971 ?x2664)))
 (let ((?x1566 (ite $x944 244 243)))
 (let (($x1309 (>= ?x971 ?x1566)))
 (let ((?x1537 (ite $x1309 9 (ite $x436 8 (ite $x1160 7 (ite $x500 6 ?x1409))))))
 (let ((?x3363 (ite $x944 274 273)))
 (let (($x979 (>= ?x971 ?x3363)))
 (let ((?x3364 (ite $x944 305 304)))
 (let (($x2116 (>= ?x971 ?x3364)))
 (let ((?x2649 (ite $x944 335 334)))
 (let (($x1423 (>= ?x971 ?x2649)))
 (let (($x2351 (= 0 0)))
 (let ((?x2397 (ite $x2351 ?x1467 (ite $x1423 12 (ite $x2116 11 (ite $x979 10 ?x1537))))))
 (= x_plus_month ?x2397)))))))))))))))))))))))))))))))))))))))))))))))))))))))))))))))))))))))))))))))))))))))))))))))))))))))
(assert
 (let ((?x641 (+ x_epoch 730179)))
 (let ((?x3127 (mod ?x641 146097)))
 (let ((?x3123 (div ?x3127 36524)))
 (let ((?x479 (ite (<= 4 ?x3123) 3 ?x3123)))
 (let ((?x652 (- ?x3127 (* ?x479 36524))))
 (let ((?x494 (mod ?x652 1461)))
 (let ((?x16 (div ?x494 365)))
 (let ((?x430 (ite (<= 4 ?x16) 3 ?x16)))
 (let ((?x1041 (+ (+ (* (div ?x641 146097) 400) (* ?x479 100)) (* (div ?x652 1461) 4))))
 (let ((?x457 (+ (+ ?x1041 ?x430) 1)))
 (let (($x2625 (or (and (= (mod ?x457 4) 0) (and (distinct (mod ?x457 100) 0) true)) (= (mod ?x457 400) 0))))
 (let ((?x2550 (- ?x494 (* ?x430 365))))
 (let ((?x2676 (ite $x2625 31 31)))
 (let (($x492 (>= ?x2550 ?x2676)))
 (let ((?x3234 (ite $x492 (+ (- ?x2550 ?x2676) 1) (+ (- ?x2550 (ite $x2625 0 0)) 1))))
 (let ((?x561 (ite $x2625 60 59)))
 (let (($x2522 (>= ?x2550 ?x561)))
 (let ((?x55 (ite $x2625 91 90)))
 (let (($x1017 (>= ?x2550 ?x55)))
 (let ((?x599 (ite $x1017 (+ (- ?x2550 ?x55) 1) (ite $x2522 (+ (- ?x2550 ?x561) 1) ?x3234))))
 (let ((?x222 (ite $x2625 121 120)))
 (let (($x28 (>= ?x2550 ?x222)))
 (let ((?x3273 (ite $x2625 152 151)))
 (let (($x1943 (>= ?x2550 ?x3273)))
 (let ((?x1910 (ite $x1943 (+ (- ?x2550 ?x3273) 1) (ite $x28 (+ (- ?x2550 ?x222) 1) ?x599))))
 (let ((?x3294 (ite $x2625 182 181)))
 (let (($x1125 (>= ?x2550 ?x3294)))
 (let ((?x2731 (ite $x2625 213 212)))
 (let (($x2525 (>= ?x2550 ?x2731)))
 (let ((?x888 (ite $x2525 (+ (- ?x2550 ?x2731) 1) (ite $x1125 (+ (- ?x2550 ?x3294) 1) ?x1910))))
 (let ((?x235 (ite $x2625 244 243)))
 (let (($x1471 (>= ?x2550 ?x235)))
 (let ((?x1414 (ite $x2625 274 273)))
 (let (($x2958 (>= ?x2550 ?x1414)))
 (let ((?x679 (ite $x2958 (+ (- ?x2550 ?x1414) 1) (ite $x1471 (+ (- ?x2550 ?x235) 1) ?x888))))
 (let ((?x1446 (ite $x2625 305 304)))
 (let (($x1110 (>= ?x2550 ?x1446)))
 (let ((?x2706 (ite $x2625 335 334)))
 (let (($x44 (>= ?x2550 ?x2706)))
 (let ((?x537 (ite $x44 (+ (- ?x2550 ?x2706) 1) (ite $x1110 (+ (- ?x2550 ?x1446) 1) ?x679))))
 (let ((?x362 (* 0 12)))
 (let ((?x214 (+ ?x362 3)))
 (let ((?x371 (ite $x28 5 (ite $x1017 4 (ite $x2522 3 (ite $x492 2 1))))))
 (let ((?x1000 (ite $x1471 9 (ite $x2525 8 (ite $x1125 7 (ite $x1943 6 ?x371))))))
 (let ((?x410 (ite $x44 12 (ite $x1110 11 (ite $x2958 10 ?x1000)))))
 (let ((?x1503 (+ ?x410 ?x214)))
 (let ((?x2150 (- ?x1503 1)))
 (let ((?x1467 (+ (mod ?x2150 12) 1)))
 (let ((?x2822 (ite (or (= ?x1467 4) (= ?x1467 6) (= ?x1467 9) (= ?x1467 11)) 30 31)))
 (let (($x863 (and (= (mod (+ ?x457 (+ 0 (div ?x2150 12))) 4) 0) (and (distinct (mod (+ ?x457 (+ 0 (div ?x2150 12))) 100) 0) true))))
 (let (($x644 (or $x863 (= (mod (+ ?x457 (+ 0 (div ?x2150 12))) 400) 0))))
 (let ((?x3090 (ite (= ?x1467 2) (ite $x644 29 28) ?x2822)))
 (let (($x717 (> 1 ?x537)))
 (let ((?x579 (ite $x717 1 (ite (> ?x537 ?x3090) ?x3090 ?x537))))
 (let ((?x554 (ite (> 1 ?x579) 1 (ite (> ?x579 ?x3090) ?x3090 ?x579))))
 (let ((?x2280 (ite (= 2 ?x1467) (ite $x644 31 31) (ite (= 1 ?x1467) (ite $x644 0 0) 0))))
 (let ((?x3373 (ite (= 4 ?x1467) (ite $x644 91 90) (ite (= 3 ?x1467) (ite $x644 60 59) ?x2280))))
 (let ((?x2786 (ite (= 6 ?x1467) (ite $x644 152 151) (ite (= 5 ?x1467) (ite $x644 121 120) ?x3373))))
 (let ((?x2245 (ite (= 8 ?x1467) (ite $x644 213 212) (ite (= 7 ?x1467) (ite $x644 182 181) ?x2786))))
 (let ((?x1016 (ite (= 10 ?x1467) (ite $x644 274 273) (ite (= 9 ?x1467) (ite $x644 244 243) ?x2245))))
 (let ((?x2244 (ite (= 12 ?x1467) (ite $x644 335 334) (ite (= 11 ?x1467) (ite $x644 305 304) ?x1016))))
 (let ((?x592 (+ (* 365 (- (+ ?x457 (+ 0 (div ?x2150 12))) 1)) (div (- (+ ?x457 (+ 0 (div ?x2150 12))) 1) 4))))
 (let ((?x1202 (+ (- ?x592 (div (- (+ ?x457 (+ 0 (div ?x2150 12))) 1) 100)) (div (- (+ ?x457 (+ 0 (div ?x2150 12))) 1) 400))))
 (let ((?x2071 (+ (+ (- (+ (+ ?x1202 ?x2244) (- ?x554 1)) 730179) 0) 730179)))
 (let ((?x1116 (mod ?x2071 146097)))
 (let ((?x3218 (div ?x1116 36524)))
 (let ((?x3169 (ite (<= 4 ?x3218) 3 ?x3218)))
 (let ((?x3097 (- ?x1116 (* ?x3169 36524))))
 (let ((?x1896 (mod ?x3097 1461)))
 (let ((?x958 (div ?x1896 365)))
 (let ((?x2961 (ite (<= 4 ?x958) 3 ?x958)))
 (let ((?x2805 (+ (+ (* (div ?x2071 146097) 400) (* ?x3169 100)) (* (div ?x3097 1461) 4))))
 (let ((?x2329 (+ (+ ?x2805 ?x2961) 1)))
 (let (($x944 (or (and (= (mod ?x2329 4) 0) (and (distinct (mod ?x2329 100) 0) true)) (= (mod ?x2329 400) 0))))
 (let ((?x971 (- ?x1896 (* ?x2961 365))))
 (let ((?x2900 (ite $x944 31 31)))
 (let (($x2653 (>= ?x971 ?x2900)))
 (let ((?x2898 (ite $x2653 (+ (- ?x971 ?x2900) 1) (+ (- ?x971 (ite $x944 0 0)) 1))))
 (let ((?x1215 (ite $x944 60 59)))
 (let (($x2047 (>= ?x971 ?x1215)))
 (let ((?x1321 (ite $x944 91 90)))
 (let (($x1165 (>= ?x971 ?x1321)))
 (let ((?x1557 (ite $x1165 (+ (- ?x971 ?x1321) 1) (ite $x2047 (+ (- ?x971 ?x1215) 1) ?x2898))))
 (let ((?x2221 (ite $x944 121 120)))
 (let (($x409 (>= ?x971 ?x2221)))
 (let ((?x2613 (ite $x944 152 151)))
 (let (($x500 (>= ?x971 ?x2613)))
 (let ((?x2291 (ite $x500 (+ (- ?x971 ?x2613) 1) (ite $x409 (+ (- ?x971 ?x2221) 1) ?x1557))))
 (let ((?x2712 (ite $x944 182 181)))
 (let (($x1160 (>= ?x971 ?x2712)))
 (let ((?x2664 (ite $x944 213 212)))
 (let (($x436 (>= ?x971 ?x2664)))
 (let ((?x2000 (ite $x436 (+ (- ?x971 ?x2664) 1) (ite $x1160 (+ (- ?x971 ?x2712) 1) ?x2291))))
 (let ((?x1566 (ite $x944 244 243)))
 (let (($x1309 (>= ?x971 ?x1566)))
 (let ((?x3363 (ite $x944 274 273)))
 (let (($x979 (>= ?x971 ?x3363)))
 (let ((?x1075 (ite $x979 (+ (- ?x971 ?x3363) 1) (ite $x1309 (+ (- ?x971 ?x1566) 1) ?x2000))))
 (let ((?x3364 (ite $x944 305 304)))
 (let (($x2116 (>= ?x971 ?x3364)))
 (let ((?x2649 (ite $x944 335 334)))
 (let (($x1423 (>= ?x971 ?x2649)))
 (let ((?x2694 (ite $x1423 (+ (- ?x971 ?x2649) 1) (ite $x2116 (+ (- ?x971 ?x3364) 1) ?x1075))))
 (let (($x2351 (= 0 0)))
 (let ((?x2974 (ite $x2351 ?x554 ?x2694)))
 (= x_plus_day ?x2974)))))))))))))))))))))))))))))))))))))))))))))))))))))))))))))))))))))))))))))))))))))))))))))))))))))))))))
(assert
 (= y_epoch x_plus_epoch))
(assert
 (= y_epoch 8460))
(check-sat)
